p wcnf 171 202 203 
1 58 -121 0 
1 -45 110 0 
1 -49 95 0 
1 -123 -116 0 
1 -157 47 0 
1 -34 67 0 
1 -135 85 0 
1 -53 113 0 
1 -167 20 0 
1 -27 -2 0 
1 -17 36 0 
1 31 56 0 
1 -94 25 0 
1 -53 -96 0 
1 -9 19 0 
1 -141 -145 0 
1 121 62 0 
1 -114 -6 0 
1 50 119 0 
1 166 -20 0 
1 123 45 0 
1 -167 106 0 
1 -56 34 0 
1 107 100 0 
1 -125 -132 0 
1 -133 87 0 
1 -125 105 0 
1 -104 70 0 
1 122 -38 0 
1 36 -54 0 
1 98 -63 0 
1 164 -94 0 
1 134 -67 0 
1 126 -43 0 
1 -135 -128 0 
1 -75 -146 0 
1 132 -62 0 
1 -70 124 0 
1 169 -78 0 
1 -44 158 0 
1 20 162 0 
1 66 -116 0 
1 -86 167 0 
1 109 106 0 
1 -137 28 0 
1 81 -25 0 
1 147 60 0 
1 -108 26 0 
1 -75 -110 0 
1 -116 -113 0 
1 -76 54 0 
1 -130 148 0 
1 -112 154 0 
1 87 169 0 
1 118 10 0 
1 121 -40 0 
1 13 -134 0 
1 -132 134 0 
1 3 143 0 
1 -98 -144 0 
1 6 -92 0 
1 7 68 0 
1 95 -130 0 
1 -82 -14 0 
1 -55 3 0 
1 -44 40 0 
1 -29 -7 0 
1 49 -16 0 
1 -36 -16 0 
1 142 -39 0 
1 160 -153 0 
1 -37 63 0 
1 130 -143 0 
1 -84 -38 0 
1 19 -13 0 
1 -100 -144 0 
1 -1 -47 0 
1 -138 -57 0 
1 -98 9 0 
1 43 -123 0 
1 -97 78 0 
1 -140 -129 0 
1 -116 135 0 
1 -16 -102 0 
1 -87 118 0 
1 56 30 0 
1 -50 64 0 
1 141 -56 0 
1 -15 -71 0 
1 164 117 0 
1 -144 -55 0 
1 87 142 0 
1 -26 41 0 
1 13 -157 0 
1 -107 147 0 
1 -153 124 0 
1 -113 55 0 
1 -98 160 0 
1 -156 -118 0 
1 -138 -11 0 
1 5 -51 0 
1 23 164 0 
1 143 99 0 
1 10 56 0 
1 18 50 0 
1 108 150 0 
1 -63 18 0 
1 57 96 0 
1 -111 98 0 
1 74 33 0 
1 129 9 0 
1 54 -45 0 
1 3 40 0 
1 -2 136 0 
1 110 140 0 
1 -104 6 0 
1 2 -87 0 
1 128 -124 0 
1 -51 77 0 
1 -53 -102 0 
1 -152 -41 0 
1 12 -87 0 
1 -11 135 0 
1 97 96 0 
1 35 63 0 
1 -87 -104 0 
1 38 80 0 
1 -7 -87 0 
1 -133 62 0 
1 -26 58 0 
1 -49 -132 0 
1 -110 -29 0 
1 -38 -24 0 
1 161 -92 0 
1 -131 11 0 
1 -152 58 0 
1 -116 -14 0 
1 -113 63 0 
1 -92 -32 0 
1 145 139 0 
1 14 -42 0 
1 -159 110 0 
1 108 -23 0 
1 -139 120 0 
1 150 -141 0 
1 -29 23 0 
1 -106 22 0 
1 56 154 0 
1 69 35 0 
1 77 157 0 
1 -51 -38 0 
1 -104 36 0 
1 13 25 0 
1 -44 -131 0 
1 -159 154 0 
1 -66 -73 0 
1 -20 -11 0 
1 116 -33 0 
1 9 121 0 
1 127 -126 0 
1 -65 -123 0 
1 -127 23 0 
1 -91 -46 0 
1 -87 -42 0 
1 138 -14 0 
1 151 -90 0 
1 99 -123 0 
1 -11 -63 0 
1 -89 58 0 
1 20 -69 0 
1 150 -94 0 
1 161 -99 0 
1 113 21 0 
1 -95 -168 0 
1 -48 90 0 
1 -20 53 0 
1 -137 -162 0 
1 104 -90 0 
1 131 -74 0 
1 -19 -143 0 
1 31 93 0 
1 127 -80 0 
1 -71 -77 0 
1 130 -35 0 
1 2 -142 0 
1 18 -158 0 
1 150 99 0 
1 -153 137 0 
1 48 28 0 
1 158 -103 0 
1 167 150 0 
1 144 131 0 
1 120 -39 0 
1 13 138 0 
1 3 48 0 
1 -140 -51 0 
1 -2 130 0 
1 94 -50 0 
1 -100 146 0 
1 34 -102 0 
1 145 -70 0 
1 100 -24 0 
